(assert (exists ((M_t_0 (Array (_ BitVec 4) Bool))
         (M_t_0!SYMBOLIC (Array (_ BitVec 4) Bool))
         (M_t_1 (Array (_ BitVec 4) Bool))
         (M_t_1!SYMBOLIC (Array (_ BitVec 4) Bool))
         (dst (_ BitVec 2))
         (dst!SYMBOLIC (_ BitVec 2))
         (op (_ BitVec 1))
         (op!SYMBOLIC (_ BitVec 1))
         (src (_ BitVec 2))
         (src!SYMBOLIC (_ BitVec 2)))
  (let ((a!1 (not (and (select M_t_0 (concat src dst))
                       (select M_t_1 (concat src dst)))))
        (a!2 (not (and (select M_t_1 (concat src dst))
                       (select M_t_0 (concat src dst)))))
        (a!3 (or (not (select M_t_1 (concat src dst)))
                 (and (= src src!SYMBOLIC)
                      (= op!SYMBOLIC #b1)
                      (= dst dst!SYMBOLIC)
                      (= M_t_1 M_t_1!SYMBOLIC)
                      (= M_t_0 M_t_0!SYMBOLIC))))
        (a!4 (or (not (select M_t_0 (concat src dst)))
                 (and (= src src!SYMBOLIC)
                      (= op!SYMBOLIC #b0)
                      (= dst dst!SYMBOLIC)
                      (= M_t_1 M_t_1!SYMBOLIC)
                      (= M_t_0 M_t_0!SYMBOLIC))))
        (a!5 (and (not (select M_t_0 (concat src dst)))
                  (not (select M_t_1 (concat src dst))))))
  (let ((a!6 (and a!3
                  a!4
                  (or (not a!5)
                      (and (= src src!SYMBOLIC)
                           (= op op!SYMBOLIC)
                           (= dst dst!SYMBOLIC)
                           (= M_t_1 M_t_1!SYMBOLIC)
                           (= M_t_0 M_t_0!SYMBOLIC))))))
    (or (not (and a!1 a!2)) a!6)))))
(check-sat)
(get-model)
